Clp0006I 0  Obj 0 Primal inf 1999.9998 (2000) Dual inf 999999.9 (1000000)
Clp0006I 200  Obj -980020 Primal inf 2037396 (1999)
Clp0006I 361  Obj -980020 Primal inf 2080576 (2000)
Clp0006I 531  Obj -977099 Primal inf 2028489 (2000)
Clp0006I 731  Obj -970254 Primal inf 1996648 (2000)
Clp0006I 923  Obj -966314 Primal inf 2007994 (2000)
Clp0006I 1098  Obj -966314 Primal inf 2050597 (2000)
Clp0006I 1292  Obj -962399 Primal inf 2020864 (2000)
Clp0006I 1492  Obj -958467 Primal inf 2004862 (2000)
Clp0006I 1692  Obj -953509 Primal inf 2013982 (2000)
Clp0006I 1832  Obj -949461 Primal inf 2043471 (2000)
Clp0006I 2032  Obj -946614 Primal inf 2019455 (1999)
Clp0006I 2232  Obj -946614 Primal inf 2012468 (1999)
Clp0006I 2432  Obj -946614 Primal inf 2017529 (1999)
Clp0006I 2632  Obj -946614 Primal inf 2016923 (1999)
Clp0006I 2832  Obj -946614 Primal inf 2016319 (1999)
Clp0006I 3032  Obj -946614 Primal inf 2015709 (1999)
Clp0006I 3232  Obj -946614 Primal inf 2013910 (1999)
Clp0006I 3432  Obj -946614 Primal inf 2013310 (1999)
Clp0006I 3632  Obj -946614 Primal inf 2017959 (1999)
Clp0006I 3832  Obj -946614 Primal inf 2017355 (1999)
Clp0006I 4032  Obj -946614 Primal inf 2016745 (1999)
Clp0006I 4232  Obj -946614 Primal inf 2024669 (1999)
Clp0006I 4432  Obj -946614 Primal inf 2020448 (1999)
Clp0006I 4632  Obj -946614 Primal inf 2019671 (1999)
Clp0006I 4832  Obj -946614 Primal inf 2021130 (1999)
Clp0006I 5032  Obj -946614 Primal inf 2013189 (1999)
Clp0006I 5232  Obj -946614 Primal inf 2016118 (1999)
Clp0006I 5432  Obj -946614 Primal inf 2015518 (1999)
Clp0006I 5632  Obj -946614 Primal inf 2019455 (1999)
Clp0006I 5832  Obj -946614 Primal inf 2020268 (1999)
Clp0006I 6032  Obj -946614 Primal inf 2019268 (1999)
Clp0006I 6232  Obj -946614 Primal inf 2018571 (1999)
Clp0006I 6432  Obj -946614 Primal inf 2548542 (2000)
Clp0006I 6567  Obj -946614 Primal inf 2869811 (2000)
Clp0006I 6720  Obj -946614 Primal inf 2476569 (2000)
Clp0006I 6886  Obj -946614 Primal inf 2746331 (2000)
Clp0006I 7016  Obj -946614 Primal inf 2604240 (2000)
Clp0006I 7150  Obj -946614 Primal inf 2871615 (2000)
Clp0006I 7293  Obj -946614 Primal inf 2424418 (2000)
Clp0006I 7381  Obj -946614 Primal inf 2599714 (2000)
Clp0006I 7471  Obj -946614 Primal inf 4642582 (2000)
Clp0006I 7612  Obj -946613.99 Primal inf 3355149 (2000)
Clp0006I 7769  Obj -946613.99 Primal inf 2864444 (2000)
Clp0006I 7902  Obj -946613.99 Primal inf 2915431 (1999)
Clp0006I 8015  Obj -946613.99 Primal inf 4459188 (1999)
Clp0006I 8112  Obj -946613.99 Primal inf 4652606 (1999)
Clp0006I 8211  Obj -946613.99 Primal inf 4850204 (1999)
Clp0006I 8312  Obj -946613.99 Primal inf 5051800 (1999)
Clp0006I 8415  Obj -946613.99 Primal inf 5257388 (1999)
Clp0006I 8518  Obj -999.96689 Primal inf 6488221 (1999)
Clp0006I 8666  Obj -999.9669 Primal inf 8703258 (1999)
Clp0006I 8834  Obj -999.96691 Primal inf 8806703 (1999)
Clp0006I 9003  Obj -999.96692 Primal inf 10530533 (1999)
Clp0006I 9175  Obj -999.96692 Primal inf 8732050 (1999)
Clp0006I 9346  Obj -999.96693 Primal inf 12333761 (1999)
Clp0006I 9499  Obj -999.96694 Primal inf 13947498 (1999)
Clp0006I 9682  Obj -999.96695 Primal inf 12222018 (1999)
Clp0006I 9878  Obj -999.96696 Primal inf 12272080 (1999)
Clp0006I 10078  Obj -999.96697 Primal inf 8797192 (1999)

TIME LIMIT REACHED!
real 1m23,972s user 1m23,380s sys 0m0,501s
